45 50
22 50 0
140 112 36
20 173 34
111 136 13
185 11 2
12 68 32
121 181 15
115 19 37
126 47 33
136 174 20
17 101 2
61 67 33
46 119 29
10 99 3
3 129 22
181 27 15
122 73 16
161 46 20
84 178 3
86 22 0
29 17 1
4 50 8
25 13 6
67 37 5
185 57 0
29 33 28
165 169 36
198 11 26
28 44 22
99 78 48
8 18 45
32 86 38
8 129 34
33 41 35
180 56 14
22 190 0
23 101 14
54 34 15
55 62 5
28 101 32
137 8 27
148 152 42
113 131 24
175 178 39
144 22 34